NAME : tsp_143_sol.txt
COMMENT : OR-Tools Guided Local Search
TYPE : TOUR
DIMENSION : 50
COST : 5830
STATUS : ROUTING_SUCCESS
GAP : 0.00% (Reference Solution)
TOUR_SECTION
1
18
7
11
5
29
10
13
8
41
24
37
3
21
33
26
44
25
38
43
17
40
46
22
15
39
23
35
4
36
47
14
28
31
45
27
9
19
50
12
30
42
34
20
49
6
48
32
16
2
-1
